100
1000
200
199
199
198
198
198
198
196
196
196
195
195
195
194
194
191
191
190
190
189
188
187
186
186
185
184
183
183
182
182
182
182
182
181
181
181
181
181
181
180
180
180
180
179
179
179
178
178
176
175
175
174
174
174
174
174
173
173
173
173
173
173
172
172
172
172
171
171
171
171
170
169
168
166
164
164
161
161
161
159
159
158
158
157
156
156
156
156
155
154
154
154
154
153
152
151
151
151
151
151
